10
0 35 23 31 53 61 8 17 19 35 
35 0 8 61 65 96 51 71 93 97 
23 8 0 6 75 9 92 0 8 54 
31 61 6 0 58 69 97 13 0 62 
53 65 75 58 0 51 28 94 59 89 
61 96 9 69 51 0 23 99 30 89 
8 51 92 97 28 23 0 31 81 41 
17 71 0 13 94 99 31 0 61 45 
19 93 8 0 59 30 81 61 0 33 
35 97 54 62 89 89 41 45 33 0 
RBBBBRRRBR
